objective value:                 0.000853992877999965
x_1_2                                               1 	(obj:0)
x_2_3                                               1 	(obj:0)
x_3_2                                               1 	(obj:0)
x_4_4                                               1 	(obj:0)
x_5_4                                               1 	(obj:0)
x_6_3                                               1 	(obj:0)
x_7_3                                               1 	(obj:0)
x_8_2                                               1 	(obj:0)
x_9_4                                               1 	(obj:0)
x_10_4                                              1 	(obj:0)
x_11_2                                              1 	(obj:0)
x_12_2                                              1 	(obj:0)
x_13_3                                              1 	(obj:0)
x_14_3                                              1 	(obj:0)
x_15_4                                              1 	(obj:0)
x_16_2                                              1 	(obj:0)
x_17_3                                              1 	(obj:0)
x_18_3                                              1 	(obj:0)
x_19_2                                              1 	(obj:0)
x_20_2                                              1 	(obj:0)
ind_2                                               1 	(obj:0)
abs_2_4                                             1 	(obj:0)
ind_3                                               1 	(obj:0)
abs_3_2                                             1 	(obj:0)
ind_4                                               1 	(obj:0)
abs_4_3                                             1 	(obj:0)
epsI                             0.000853992877999965 	(obj:1)
prodt_x_19_2_t_x_20_2_coh_2                         1 	(obj:0)
prodt_x_1_2_t_x_2_2_more_coh_2            3.859115633 	(obj:0)
prodt_x_3_2_t_x_4_2_more_coh_2           3.0388235929 	(obj:0)
prodt_x_8_2_t_x_11_2_more_coh_2      3.42387606769999 	(obj:0)
prodt_x_11_2_t_x_12_2_more_coh_2         2.4170633925 	(obj:0)
prodt_x_12_2_t_x_13_2_more_coh_2         2.5148144914 	(obj:0)
prodt_x_16_2_t_x_17_2_more_coh_2          1.073089423 	(obj:0)
prodt_x_2_3_t_x_3_3_more_coh_3           6.0852829971 	(obj:0)
prodt_x_6_3_t_x_7_3_more_coh_3           4.6572509945 	(obj:0)
prodt_x_7_3_t_x_9_3_more_coh_3           3.7485101197 	(obj:0)
prodt_x_13_3_t_x_15_3_more_coh_3         3.5569955528 	(obj:0)
prodt_x_14_3_t_x_15_3_more_coh_3         0.7612942039 	(obj:0)
prodt_x_17_3_t_x_18_3_more_coh_3         1.1755660965 	(obj:0)
prodt_x_4_4_t_x_5_4_more_coh_4           2.9417181584 	(obj:0)
prodt_x_5_4_t_x_6_4_more_coh_4            2.669811727 	(obj:0)
prodt_x_9_4_t_x_14_4_more_coh_4          2.2780851559 	(obj:0)
prodt_x_10_4_t_x_11_4_more_coh_4         1.8488839179 	(obj:0)
prodt_x_1_2_t_x_2_2_more_irrev1_2_1     1.38129248577394 	(obj:0)
prodt_x_1_2_t_x_2_2_more_irrev2_2_1    -1.38129248577394 	(obj:0)
prodt_x_1_2_t_x_2_3_more_irrev1_3_1     1.27671034407798 	(obj:0)
prodt_x_1_2_t_x_2_3_more_irrev2_3_1    -1.27671034407798 	(obj:0)
prodt_x_1_2_t_x_2_3_more_irrev1_3_2    -1.27671034407798 	(obj:0)
prodt_x_2_3_t_x_3_2_more_irrev1_3_2   -0.629718524203171 	(obj:0)
prodt_x_3_2_t_x_4_3_more_irrev1_3_2    -3.47460704917192 	(obj:0)
prodt_x_6_3_t_x_7_2_more_irrev1_3_2    -3.75113134356778 	(obj:0)
prodt_x_7_3_t_x_10_2_more_irrev1_3_2   -0.361426899999998 	(obj:0)
prodt_x_8_2_t_x_9_3_more_irrev1_3_2    -1.34142944465612 	(obj:0)
prodt_x_11_2_t_x_13_3_more_irrev1_3_2    -2.84462227534378 	(obj:0)
prodt_x_12_2_t_x_14_3_more_irrev1_3_2   -0.313749690000001 	(obj:0)
prodt_x_13_3_t_x_17_2_more_irrev1_3_2   -0.871429830699231 	(obj:0)
prodt_x_14_3_t_x_15_2_more_irrev1_3_2    -2.19803140309311 	(obj:0)
prodt_x_16_2_t_x_20_3_more_irrev1_3_2    -0.58399315140565 	(obj:0)
prodt_x_17_3_t_x_18_2_more_irrev1_3_2   -0.143295021755115 	(obj:0)
prodt_x_18_3_t_x_19_2_more_irrev1_3_2      1.7429644351402 	(obj:0)
prodt_x_1_2_t_x_2_3_more_irrev2_3_2     1.27671034407798 	(obj:0)
prodt_x_2_3_t_x_3_2_more_irrev2_3_2    0.629718524203171 	(obj:0)
prodt_x_3_2_t_x_4_3_more_irrev2_3_2     3.47460704917192 	(obj:0)
prodt_x_6_3_t_x_7_2_more_irrev2_3_2     3.75113134356779 	(obj:0)
prodt_x_7_3_t_x_10_2_more_irrev2_3_2    0.361426899999998 	(obj:0)
prodt_x_8_2_t_x_9_3_more_irrev2_3_2     1.34142944465612 	(obj:0)
prodt_x_11_2_t_x_13_3_more_irrev2_3_2     2.84462227534378 	(obj:0)
prodt_x_12_2_t_x_14_3_more_irrev2_3_2    0.313749690000001 	(obj:0)
prodt_x_13_3_t_x_17_2_more_irrev2_3_2    0.871429830699231 	(obj:0)
prodt_x_14_3_t_x_15_2_more_irrev2_3_2     2.19803140309311 	(obj:0)
prodt_x_16_2_t_x_20_3_more_irrev2_3_2     0.58399315140565 	(obj:0)
prodt_x_17_3_t_x_18_2_more_irrev2_3_2    0.143295021755115 	(obj:0)
prodt_x_18_3_t_x_19_2_more_irrev2_3_2      1.7429644351402 	(obj:0)
prodt_x_1_2_t_x_5_4_more_irrev1_4_1      -2.657150643703 	(obj:0)
prodt_x_1_2_t_x_5_4_more_irrev2_4_1       2.657150643703 	(obj:0)
prodt_x_1_2_t_x_5_4_more_irrev1_4_2       2.657150643703 	(obj:0)
prodt_x_3_2_t_x_4_4_more_irrev1_4_2    0.292350607624633 	(obj:0)
prodt_x_4_4_t_x_7_2_more_irrev1_4_2     1.12435850999999 	(obj:0)
prodt_x_5_4_t_x_7_2_more_irrev1_4_2     2.89093450521472 	(obj:0)
prodt_x_8_2_t_x_9_4_more_irrev1_4_2     1.74950693369319 	(obj:0)
prodt_x_9_4_t_x_11_2_more_irrev1_4_2     2.80222063326224 	(obj:0)
prodt_x_10_4_t_x_12_2_more_irrev1_4_2    0.797185456579626 	(obj:0)
prodt_x_11_2_t_x_13_4_more_irrev1_4_2    0.186219660559072 	(obj:0)
prodt_x_12_2_t_x_14_4_more_irrev1_4_2    0.746870130000003 	(obj:0)
prodt_x_15_4_t_x_16_2_more_irrev1_4_2     1.67737079618402 	(obj:0)
prodt_x_1_2_t_x_5_4_more_irrev2_4_2      -2.657150643703 	(obj:0)
prodt_x_3_2_t_x_4_4_more_irrev2_4_2   -0.292350607624633 	(obj:0)
prodt_x_4_4_t_x_7_2_more_irrev2_4_2    -1.12435850999999 	(obj:0)
prodt_x_5_4_t_x_7_2_more_irrev2_4_2    -2.89093450521472 	(obj:0)
prodt_x_8_2_t_x_9_4_more_irrev2_4_2    -1.74950693369319 	(obj:0)
prodt_x_9_4_t_x_11_2_more_irrev2_4_2    -2.80222063326224 	(obj:0)
prodt_x_10_4_t_x_12_2_more_irrev2_4_2   -0.797185456579626 	(obj:0)
prodt_x_11_2_t_x_13_4_more_irrev2_4_2   -0.186219660559072 	(obj:0)
prodt_x_12_2_t_x_14_4_more_irrev2_4_2   -0.746870130000003 	(obj:0)
prodt_x_15_4_t_x_16_2_more_irrev2_4_2    -1.67737079618402 	(obj:0)
prodt_x_2_3_t_x_4_4_more_irrev1_4_3     -2.4166125621282 	(obj:0)
prodt_x_4_4_t_x_7_3_more_irrev1_4_3          -2.21095892 	(obj:0)
prodt_x_5_4_t_x_7_3_more_irrev1_4_3   -0.648071270649113 	(obj:0)
prodt_x_6_3_t_x_7_4_more_irrev1_4_3    -1.06372771225196 	(obj:0)
prodt_x_7_3_t_x_8_4_more_irrev1_4_3    -1.57097985000001 	(obj:0)
prodt_x_9_4_t_x_11_3_more_irrev1_4_3   -0.769097093910078 	(obj:0)
prodt_x_10_4_t_x_12_3_more_irrev1_4_3    -2.42784702055947 	(obj:0)
prodt_x_13_3_t_x_14_4_more_irrev1_4_3                   -1 	(obj:0)
prodt_x_14_3_t_x_16_4_more_irrev1_4_3  -0.0375352518373016 	(obj:0)
prodt_x_15_4_t_x_16_3_more_irrev1_4_3    -1.43008080134451 	(obj:0)
prodt_x_2_3_t_x_4_4_more_irrev2_4_3      2.4166125621282 	(obj:0)
prodt_x_4_4_t_x_7_3_more_irrev2_4_3           2.21095892 	(obj:0)
prodt_x_5_4_t_x_7_3_more_irrev2_4_3     0.64807127064911 	(obj:0)
prodt_x_6_3_t_x_7_4_more_irrev2_4_3     1.06372771225196 	(obj:0)
prodt_x_7_3_t_x_8_4_more_irrev2_4_3     1.57097985000001 	(obj:0)
prodt_x_9_4_t_x_11_3_more_irrev2_4_3    0.769097093910078 	(obj:0)
prodt_x_10_4_t_x_12_3_more_irrev2_4_3     2.42784702055947 	(obj:0)
prodt_x_13_3_t_x_14_4_more_irrev2_4_3                    1 	(obj:0)
prodt_x_14_3_t_x_16_4_more_irrev2_4_3   0.0375352518373016 	(obj:0)
prodt_x_15_4_t_x_16_3_more_irrev2_4_3     1.43008080134451 	(obj:0)
SCIP Status        : solving was interrupted [time limit reached]
Total Time         :    3600.00
  solving          :    3600.00
  presolving       :       0.08 (included in solving)
  reading          :       0.00
  copying          :       1.23 (118 #copies) (minimal 0.00, maximal 0.02, average 0.01)
Original Problem   :
  Problem name     : ../instances/Pot4/Pot4_T_20B_alpha=3.txt.spa
  Variables        : 101 (100 binary, 0 integer, 0 implicit integer, 1 continuous)
  Constraints      : 193 initial, 193 maximal
  Objective sense  : maximize
Presolved Problem  :
  Problem name     : t_../instances/Pot4/Pot4_T_20B_alpha=3.txt.spa
  Variables        : 590 (92 binary, 0 integer, 16 implicit integer, 482 continuous)
  Constraints      : 2015 initial, 6194 maximal
Presolvers         :   ExecTime  SetupTime  Calls  FixedVars   AggrVars   ChgTypes  ChgBounds   AddHoles    DelCons    AddCons   ChgSides   ChgCoefs
  boundshift       :       0.00       0.00      0          0          0          0          0          0          0          0          0          0
  components       :       0.00       0.00      1          0          0          0          0          0          0          0          0          0
  convertinttobin  :       0.00       0.00      0          0          0          0          0          0          0          0          0          0
  domcol           :       0.00       0.00      1          0          0          0          0          0          0          0          0          0
  dualagg          :       0.00       0.00      0          0          0          0          0          0          0          0          0          0
  dualinfer        :       0.00       0.00      0          0          0          0          0          0          0          0          0          0
  gateextraction   :       0.00       0.00      3          0          0          0          0          0        108         34          0          0
  implfree         :       0.00       0.00      0          0          0          0          0          0          0          0          0          0
  implics          :       0.00       0.00      4          0          0          0          0          0          0          0          0          0
  inttobinary      :       0.00       0.00      0          0          0          0          0          0          0          0          0          0
  redvub           :       0.00       0.00      0          0          0          0          0          0          0          0          0          0
  stuffing         :       0.00       0.00      1          0          0          0          0          0          0          0          0          0
  trivial          :       0.00       0.00      7          0          0          0          0          0          0          0          0          0
  tworowbnd        :       0.00       0.00      0          0          0          0          0          0          0          0          0          0
  dualfix          :       0.00       0.00      7          4          0          0          0          0          0          0          0          0
  genvbounds       :       0.00       0.00      0          0          0          0          0          0          0          0          0          0
  probing          :       0.05       0.00      1          0          0          0          4          0          0          0          0          0
  pseudoobj        :       0.00       0.00      0          0          0          0          0          0          0          0          0          0
  varbound         :       0.00       0.00      9          0          0          0          0          0         28         28          0          0
  setppc           :       0.01       0.00     12          0          0          0          0          0          0          0          0          0
  and              :       0.00       0.00      4          0         12          0          0          0         12          0          0          0
  linear           :       0.01       0.00      9          3          1          0          4          0          7          0         12         12
  logicor          :       0.00       0.00      7          0          0          0          0          0          0          0          0          0
  bounddisjunction :       0.00       0.00      0          0          0          0          0          0          0          0          0          0
  quadratic        :       0.01       0.00      2          0          0          0          0          0          0       1915          0          0
  root node        :          -          -      -          1          -          -         81          -          -          -          -          -
Constraints        :     Number  MaxNumber  #Separate #Propagate    #EnfoLP    #EnfoPS     #Check   #ResProp    Cutoffs    DomReds       Cuts    Applied      Conss   Children
  integral         :          0          0          0          0    1918185          0     402250          0          0      47445          0          0        165    3808854
  varbound         :        869        869         76   11584587      10059          0     100319    5759606      99906   79993701          0          0          0          0
  setppc           :        110+       173         76   11484460      10059          0       2234    3187523      35973    5090433          7          0          0          0
  and              :         22         22       1435      15177          0          0       1963     380091          5       1375         23          9          0          0
  linear           :        979        979         76   11448705       9976          0       1832    3206402     368857  145161629     453085     452904          0          0
  logicor          :         35+       863         73    3308343          0          0          0      70814       6127     189565          0          0          0          0
  bounddisjunction :          0+      4065          0    5724765          0          0          0     337307      18153    6873632          0          0          0          0
  countsols        :          0          0          0          0          2          0     301929          0          0          0          0          0          0          0
Constraint Timings :  TotalTime  SetupTime   Separate  Propagate     EnfoLP     EnfoPS      Check    ResProp    SB-Prop
  integral         :      17.98       0.00       0.00       0.00      17.95       0.00       0.03       0.00       0.00
  varbound         :      80.52       0.00       0.00      78.81       0.14       0.00       0.48       0.97       0.12
  setppc           :      50.37       0.00       0.00      49.53       0.00       0.00       0.01       0.74       0.09
  and              :       0.20       0.00       0.00       0.00       0.00       0.00       0.02       0.18       0.00
  linear           :     251.23       0.00       0.00     247.86       0.36       0.00       0.07       2.45       0.49
  logicor          :      12.96       0.00       0.00      12.88       0.00       0.00       0.00       0.08       0.00
  bounddisjunction :     109.92       0.00       0.00     109.76       0.00       0.00       0.00       0.12       0.04
  countsols        :       0.01       0.00       0.00       0.00       0.00       0.00       0.01       0.00       0.00
Propagators        : #Propagate   #ResProp    Cutoffs    DomReds
  dualfix          :          2          0          0          0
  genvbounds       :          0          0          0          0
  obbt             :          0          0          0          0
  probing          :          0          0          0          0
  pseudoobj        :   11978097          0        123         79
  redcost          :    4254796          0       4257     694370
  rootredcost      :          3          0          0          1
  vbounds          :   13500021       6963          0        181
Propagator Timings :  TotalTime  SetupTime   Presolve  Propagate    ResProp    SB-Prop
  dualfix          :       0.00       0.00       0.00       0.00       0.00       0.00
  genvbounds       :       2.03       0.00       0.00       2.03       0.00       0.00
  obbt             :       0.00       0.00       0.00       0.00       0.00       0.00
  probing          :       0.05       0.00       0.05       0.00       0.00       0.00
  pseudoobj        :       4.55       0.00       0.00       4.55       0.00       0.00
  redcost          :      25.14       0.00       0.00      25.14       0.00       0.00
  rootredcost      :       2.57       0.00       0.00       2.57       0.00       0.00
  vbounds          :       5.35       0.00       0.00       5.35       0.00       0.00
Conflict Analysis  :       Time      Calls    Success    DomReds  Conflicts   Literals    Reconvs ReconvLits   LP Iters
  propagation      :      10.55     160704     160564          -    1933488       39.0       8869       44.1          -
  infeasible LP    :       9.87      78097      52785          -     853296       39.6        122       15.3          0
  bound exceed. LP :       0.00          0          0          -          0        0.0          0        0.0          0
  strong branching :       0.00          0          0          -          0        0.0          0        0.0          0
  pseudo solution  :       0.00          0          0          -          0        0.0          0        0.0          -
  applied globally :       4.36          -          -          0     335819       20.2          -          -          -
  applied locally  :          -          -          -          0      21075       27.4          -          -          -
Separators         :   ExecTime  SetupTime      Calls    Cutoffs    DomReds       Cuts    Applied      Conss
  cut pool         :       0.00                    75          -          -        881          -          -    (maximal pool size: 590)
  cgmip            :       0.00       0.00          0          0          0          0          0          0
  clique           :       0.03       0.00         76          0          0         28         26          0
  closecuts        :       0.00       0.00          0          0          0          0          0          0
  cmir             :       0.02       0.00         10          0          0         55         10          0
  disjunctive      :       0.00       0.00          0          0          0          0          0          0
  eccuts           :       0.00       0.00          0          0          0          0          0          0
  flowcover        :       0.19       0.00         15          0          0        245         34          0
  gomory           :       0.04       0.00         10          0          0         18         18          0
  impliedbounds    :       0.01       0.00         76          0          0        594        122          0
  intobj           :       0.00       0.00          0          0          0          0          0          0
  mcf              :       0.00       0.00          1          0          0          0          0          0
  oddcycle         :       0.00       0.00          0          0          0          0          0          0
  rapidlearning    :       0.00       0.00          0          0          0          0          0          0
  strongcg         :       0.04       0.00         20          0          0          4          2          0
  zerohalf         :       0.00       0.00          0          0          0          0          0          0
Pricers            :   ExecTime  SetupTime      Calls       Vars
  problem variables:       0.00          -          0          0
Branching Rules    :   ExecTime  SetupTime   BranchLP  BranchExt   BranchPS    Cutoffs    DomReds       Cuts      Conss   Children
  allfullstrong    :       0.00       0.00          0          0          0          0          0          0          0          0
  cloud            :       0.00       0.00          0          0          0          0          0          0          0          0
  distribution     :       0.00       0.00          0          0          0          0          0          0          0          0
  fullstrong       :       0.00       0.00          0          0          0          0          0          0          0          0
  inference        :       0.00       0.00          0          0          0          0          0          0          0          0
  leastinf         :       0.00       0.00          0          0          0          0          0          0          0          0
  mostinf          :       0.00       0.00          0          0          0          0          0          0          0          0
  multaggr         :       0.00       0.00          0          0          0          0          0          0          0          0
  nodereopt        :       0.00       0.00          0          0          0          0          0          0          0          0
  pscost           :       0.00       0.00          0          0          0          0          0          0          0          0
  random           :       0.00       0.00          0          0          0          0          0          0          0          0
  relpscost        :      16.90       0.00    1908126          0          0          0      47445          0       -327    3808854
Primal Heuristics  :   ExecTime  SetupTime      Calls      Found       Best
  LP solutions     :       0.00          -          -          2          -
  pseudo solutions :       0.00          -          -          0          -
  strong branching :       0.00          -          -          0          -
  SpaGreedy        :     363.24       0.00     301928          2          1
  actconsdiving    :       0.00       0.00          0          0          0
  bound            :       0.00       0.00          0          0          0
  clique           :       0.00       0.00          0          0          0
  coefdiving       :      36.19       0.00      11416          0          0
  crossover        :       0.96       0.00          0          0          0
  dins             :       0.00       0.00          0          0          0
  distributiondivin:      53.04       0.00      11415          0          0
  dualval          :       0.00       0.00          0          0          0
  feaspump         :      17.03       0.00       2003          0          0
  fixandinfer      :       0.00       0.00          0          0          0
  fracdiving       :      37.26       0.00      11416          0          0
  guideddiving     :      39.28       0.00      11416          0          0
  indicator        :       0.40       0.00          0          0          0
  intdiving        :       0.00       0.00          0          0          0
  intshifting      :       0.42       0.00        164          0          0
  linesearchdiving :      37.28       0.00      11417          0          0
  localbranching   :       0.00       0.00          0          0          0
  mutation         :       0.00       0.00          0          0          0
  nlpdiving        :       0.04       0.00          0          0          0
  objpscostdiving  :      17.06       0.00       2443          0          0
  octane           :       0.00       0.00          0          0          0
  ofins            :       0.00       0.00          0          0          0
  oneopt           :       0.59       0.00          2          0          0
  proximity        :       0.00       0.00          0          0          0
  pscostdiving     :      37.98       0.00      11416          0          0
  randrounding     :       1.21       0.00      98767          0          0
  rens             :       0.00       0.00          0          0          0
  reoptsols        :       0.00       0.00          0          0          0
  rins             :       4.77       0.00         96          0          0
  rootsoldiving    :      19.41       0.00       3467          0          0
  rounding         :       0.77       0.00      19463          0          0
  shiftandpropagate:       0.00       0.00          0          0          0
  shifting         :       1.26       0.00       5235          0          0
  simplerounding   :       0.29       0.00          0          0          0
  subnlp           :       0.66       0.00          0          0          0
  trivial          :       0.00       0.00          2          0          0
  trivialnegation  :       0.00       0.00          0          0          0
  trysol           :       0.63       0.00          0          0          0
  twoopt           :       0.00       0.00          0          0          0
  undercover       :       0.00       0.00          1          0          0
  vbounds          :       0.00       0.00          0          0          0
  veclendiving     :      37.08       0.00      11416          0          0
  zeroobj          :       0.00       0.00          0          0          0
  zirounding       :       0.58       0.00       1000          0          0
  other solutions  :          -          -          -          0          -
Diving Statistics  :      Calls      Nodes   LP Iters Backtracks   MinDepth   MaxDepth   AvgDepth  NLeafSols  MinSolDpt  MaxSolDpt  AvgSolDpt
  actconsdiving    :          0          -          -          -          -          -          -          -          -          -          -
  coefdiving       :      11416      78329     673026      16773         16         43       28.4          -          -          -          -
  distributiondivin:      11415      68451     726153      15354         17         38       28.0          -          -          -          -
  fracdiving       :      11416      81723     833375      19753         17         41       28.6          -          -          -          -
  guideddiving     :      11416      83972     893065      19965         18         40       28.8          -          -          -          -
  linesearchdiving :      11417      74435     762645      19635         16         38       27.9          -          -          -          -
  pscostdiving     :      11416      90769     826614      15824         15         44       29.7          -          -          -          -
  veclendiving     :      11416      75246     668877      21296         17         39       27.8          -          -          -          -
LP                 :       Time      Calls Iterations  Iter/call   Iter/sec  Time-0-It Calls-0-It
  primal LP        :       0.00         12          0       0.00          -       0.00         12
  dual LP          :    1400.93    3595303   53295667      18.14   38043.06      67.52     657843
  lex dual LP      :       0.00          0          0       0.00          -
  barrier LP       :       0.00          0          0       0.00          -       0.00          0
  diving/probing LP:     179.33     283945    7091623      24.98   39545.10
  strong branching :       4.76       4617     168128      36.41   35321.01
    (at root node) :          -         22       1622      73.73          -
  conflict analysis:       0.00          0          0       0.00          -
B&B Tree           :
  number of runs   :          1
  nodes            :    3502911 (1904427 internal, 1598484 leaves)
  nodes (total)    :    3502911 (1904427 internal, 1598484 leaves)
  nodes left       :     291302
  max depth        :         39
  max depth (total):         39
  backtracks       :     883228 (25.2%)
  delayed cutoffs  :      13900
  repropagations   :     145908 (4349610 domain reductions, 12972 cutoffs)
  avg switch length:       5.92
  switching time   :     530.67
Root Node          :
  First LP value   : +3.00000000000000e+00
  First LP Iters   :        379 (37900.00 Iter/sec)
  First LP Time    :       0.01
  Final Dual Bound : +7.26782468876910e-03
  Final Root Iters :       2337
Solution           :
  Solutions found  :          4 (3 improvements)
  First Solution   : +7.73763302999990e-04   (in run 1, after 1 nodes, 0.08 seconds, depth 0, found by <SpaGreedy>)
  Gap First Sol.   :   infinite
  Gap Last Sol.    :      69.42 %
  Primal Bound     : +8.53992877999965e-04   (in run 1, after 301047 nodes, 313.47 seconds, depth 33, found by <relaxation>)
  Dual Bound       : +1.27118869314923e-03
  Gap              :      48.85 %
  Avg. Gap         :      38.58 % (138898.88 primal-dual integral)
